n_res = 4;
rcap = [29, 28, 123, 124];
rtype = [1, 1, 2, 2];
n_tasks = 20;
modes = [ {1, 2, 3}, {4, 5, 6}, {7, 8, 9}, {10, 11, 12}, {13, 14, 15}, {16, 17, 18}, {19, 20, 21}, {22, 23, 24}, {25, 26, 27}, {28, 29, 30}, {31, 32, 33}, {34, 35, 36}, {37, 38, 39}, {40, 41, 42}, {43, 44, 45}, {46, 47, 48}, {49, 50, 51}, {52, 53, 54}, {55, 56, 57}, {58, 59, 60} ];
succ = [ {4, 5, 7}, {5, 6, 7}, {9, 12, 18}, {6, 12}, {8, 10, 13}, {19, 20}, {9, 13, 18}, {11}, {10}, {14, 16, 19}, {12, 16, 18}, {14, 19}, {20}, {15}, {17}, {17}, {20}, {}, {}, {} ];
n_opt = 60;
dur = [1, 5, 6, 2, 2, 10, 1, 2, 10, 2, 4, 9, 1, 4, 7, 3, 3, 6, 4, 6, 7, 2, 5, 6, 1, 6, 7, 3, 6, 7, 4, 4, 5, 3, 3, 4, 2, 3, 10, 1, 2, 7, 3, 5, 8, 5, 7, 9, 2, 9, 10, 7, 8, 10, 3, 4, 9, 3, 7, 9];
rreq = [|  8,  8,  8,  3,  3,  3,  5,  3,  1,  5,  5,  4,  7,  7,  4, 10,  8,  2,  5,  4,  3,  5,  5,  5,  7,  7,  4, 10,  8,  8,  3,  5,  2, 10, 10, 10,  5,  4,  2,  8,  7,  6,  4,  3,  3,  3,  2,  1, 10,  9,  9,  9,  8,  8,  8,  7,  6,  8,  6,  2
        |  7,  7,  6,  5,  7,  3,  7,  7,  7,  8,  8,  8,  7,  5,  2,  7,  8,  6,  9,  8,  8,  6,  5,  5,  7,  6,  6,  9,  7,  7,  9,  9,  7,  9,  9,  7, 10,  9,  9,  6,  6,  5,  6,  6,  6,  2,  2,  2,  4,  4,  4,  5,  4,  4,  6,  6,  2, 10, 10, 10
        |  4,  4,  3,  5,  5,  1, 10,  4,  2,  8,  6,  4,  8,  8,  7, 10,  8,  4,  9,  8,  6,  7,  6,  6,  9,  9,  8,  8,  5,  5,  9,  9,  8,  4,  5,  2, 10,  8,  7,  6,  6,  4,  4,  2,  1,  8,  7,  4,  7,  7,  7,  6,  6,  2,  9,  7,  6,  9,  8,  7
        |  7,  6,  3,  6,  5,  5,  8,  8,  7,  8,  6,  6,  6,  4,  4,  7,  8,  5, 10,  8,  8, 10,  7,  5,  8,  7,  3,  8,  5,  2,  9,  6,  2,  8,  7,  5,  9,  8,  8,  7,  5,  4,  6,  5,  4,  6,  5,  4,  4,  3,  2,  4,  3,  2, 10,  9,  9,  9,  8,  8 |];
